# Solution for model count
# Objective value = 9
z#1 1
z#2 0
z#3 1
z#4 0
z#5 1
z#6 1
z#7 0
z#8 1
z#9 1
z#10 1
z#11 0
z#12 0
z#13 0
z#14 0
z#15 0
z#16 0
z#17 0
z#18 0
z#19 1
z#20 0
z#21 0
z#22 0
z#23 1
z#24 0
x#24 0
x#23 3126
x#22 0
x#21 0
x#20 0
x#19 514
x#18 0
x#17 0
x#16 0
x#15 0
x#14 0
x#13 0
x#12 0
x#11 0
x#10 301
x#9 1246
x#8 357
x#7 0
x#6 161
x#5 329
x#4 0
x#3 2605
x#2 0
x#1 1361
